nNurses = 121;
nHours = 27;
minHours = 6;
maxHours = 18;
maxConsec = 16;
maxPresence = 17;
demand = [12, 14, 17, 16, 17, 17, 13, 15, 10, 6, 10, 7, 11, 14, 11, 15, 17, 16, 20, 18, 21, 26, 22, 25, 29, 31, 28];
